# 2D particle pipe simulation

atom_style	sphere
atom_modify	map array
boundary	ff ff ff
newton		off
# processors  2 1 1

communicate single vel yes
read_data 	In_initial.in

neighbor	5.0e-4 bin
neigh_modify	delay 0

# pair_style  none
pair_style  gran/hooke/history 10000.0 NULL 15100 NULL 0.3 0
pair_coeff  * *
timestep	5e-6

velocity    all set 0.0 0.0 0.0 units box

fix		1 all nve/sphere  
fix		2 all gravity 9.8 vector 0 -1 0 # spherical 90.0 -180.0    
fix     3 all fdrag

fix  xwall all wall/gran 10000.0 NULL 15100 NULL 0.3 0 xplane 0.00 0.090
fix  ywall all wall/gran 10000.0 NULL 15100 NULL 0.3 0 yplane 0.00 0.500
fix  zwall all wall/gran 10000.0 NULL 15100 NULL 0.3 0 zplane 0.00 0.008

#dump		id all custom 30000 snapshot2.bubblemd tag type x y z vx vy vz
dump		id all custom 10000 snapshot.bubblemd id type diameter mass x y z vx vy vz

#thermo_style  granular # not work. syntax change?
thermo_style  one   # granular does not work
thermo		2000
thermo_modify	lost error
#restart		1000000  restart.*.bubblemd


